1 1 2 0
1 -1 -3 0
1 2 3 0
1 -4 -5 0
1 -4 6 0
1 4 -7 0
1 -4 8 0
1 -4 -9 0
1 4 10 0
1 -4 3 0
1 -4 -11 0
1 12 -5 0
1 -12 -6 0
1 12 -13 0
1 12 -8 0
1 12 -3 0
1 12 11 0
1 7 14 0
1 7 15 0
1 7 16 0
1 -7 -17 0
1 -7 -18 0
1 -7 4 0
1 7 1 0
1 11 19 0
1 -11 12 0
1 11 2 0
1 11 20 0
1 11 -17 0
1 11 -4 0
1 11 -1 0
1 -21 -22 0
1 21 23 0
1 -21 -24 0
1 21 12 0
1 21 25 0
1 -21 -4 0
1 -21 -1 0
1 21 3 0
1 -3 23 0
1 3 24 0
1 3 2 0
1 -3 -21 0
1 3 25 0
1 3 -26 0
1 -18 5 0
1 18 -6 0
1 18 15 0
1 -18 -7 0
1 18 8 0
1 -15 5 0
1 15 -6 0
1 15 24 0
1 -15 7 0
1 -15 -8 0
1 -15 -9 0
1 15 11 0
1 -17 5 0
1 -17 6 0
1 17 -27 0
1 -17 -28 0
1 17 -7 0
1 -17 -9 0
1 -17 -25 0
1 17 11 0
1 14 5 0
1 14 6 0
1 -14 -23 0
1 14 -28 0
1 14 29 0
1 -14 30 0
1 -14 -11 0
1 9 31 0
1 -9 -6 0
1 -9 12 0
1 -9 32 0
1 9 17 0
1 6 -31 0
1 -6 -14 0
1 -6 -15 0
1 6 -33 0
1 -6 -32 0
1 -6 -9 0
1 -6 -18 0
1 6 -4 0
1 6 34 0
1 8 -5 0
1 8 35 0
1 8 22 0
1 8 -14 0
1 -8 15 0
1 -8 12 0
1 8 -36 0
1 8 37 0
1 8 -18 0
1 -5 35 0
1 -5 38 0
1 -5 -12 0
1 -5 36 0
1 5 37 0
1 -5 -17 0
1 5 -4 0
1 5 34 0
1 -32 -39 0
1 32 6 0
1 32 27 0
1 32 -28 0
1 -32 -29 0
1 -39 22 0
1 -39 27 0
1 39 -32 0
1 -33 -27 0
1 33 28 0
1 -33 37 0
1 33 -30 0
1 31 -35 0
1 31 -6 0
1 -31 33 0
1 31 30 0
1 30 -39 0
1 30 -14 0
1 30 28 0
1 -30 -40 0
1 30 -33 0
1 -30 32 0
1 30 17 0
1 30 -41 0
1 30 42 0
1 28 -31 0
1 28 33 0
1 -28 17 0
1 28 42 0
1 -29 31 0
1 29 39 0
1 -29 -14 0
1 -29 40 0
1 29 -43 0
1 -29 36 0
1 -29 17 0
1 29 44 0
1 29 -34 0
1 27 39 0
1 27 14 0
1 -27 -43 0
1 27 -33 0
1 27 -32 0
1 -27 -17 0
1 27 -29 0
1 27 -42 0
1 27 44 0
1 45 46 0
1 -45 -47 0
1 -45 48 0
1 -45 1 0
1 -47 -49 0
1 -47 -45 0
1 -10 49 0
1 10 -50 0
1 10 -13 0
1 10 -48 0
1 -10 -51 0
1 -10 52 0
1 13 -46 0
1 -13 49 0
1 -13 53 0
1 13 -12 0
1 13 -48 0
1 13 -54 0
1 13 10 0
1 -49 -55 0
1 49 -24 0
1 49 13 0
1 -49 -47 0
1 49 -51 0
1 -49 -26 0
1 -49 45 0
1 51 23 0
1 51 -24 0
1 51 13 0
1 51 56 0
1 51 26 0
1 51 10 0
1 -51 45 0
1 -46 57 0
1 -46 -13 0
1 46 48 0
1 46 -10 0
1 -46 45 0
1 48 -58 0
1 26 49 0
1 26 -24 0
1 26 -50 0
1 -26 -54 0
1 -26 -18 0
1 26 -3 0
1 24 53 0
1 24 52 0
1 -24 54 0
1 -24 3 0
1 -25 -49 0
1 25 -23 0
1 -25 -53 0
1 -25 50 0
1 25 -21 0
1 -25 -51 0
1 -25 -17 0
1 25 54 0
1 25 -59 0
1 25 -60 0
1 -25 -3 0
1 23 -54 0
1 -23 49 0
1 -23 -61 0
1 23 62 0
1 23 21 0
1 -23 51 0
1 -23 52 0
1 23 25 0
1 -23 3 0
1 -50 63 0
1 50 -35 0
1 -50 -23 0
1 -50 -24 0
1 50 -64 0
1 -50 13 0
1 -50 65 0
1 50 -37 0
1 -50 25 0
1 -50 -26 0
1 -50 -10 0
1 54 -35 0
1 -54 22 0
1 -54 23 0
1 -54 24 0
1 54 50 0
1 54 20 0
1 -54 -25 0
1 54 -26 0
1 -53 -63 0
1 53 -23 0
1 53 66 0
1 53 65 0
1 53 -52 0
1 53 -25 0
1 53 -26 0
1 -52 63 0
1 -52 23 0
1 52 -67 0
1 -52 -10 0
1 20 5 0
1 -20 22 0
1 -20 62 0
1 20 21 0
1 20 -7 0
1 20 8 0
1 -20 32 0
1 20 54 0
1 -20 59 0
1 20 -60 0
1 -20 -11 0
1 22 -5 0
1 -22 39 0
1 -22 -50 0
1 -22 -61 0
1 22 -62 0
1 22 21 0
1 22 -7 0
1 -22 -59 0
1 -22 60 0
1 -22 -11 0
1 37 -5 0
1 37 -35 0
1 -37 61 0
1 -37 -68 0
1 37 16 0
1 37 33 0
1 -37 -54 0
1 -37 59 0
1 -37 -60 0
1 37 -69 0
1 -35 19 0
1 35 -31 0
1 35 -50 0
1 -35 61 0
1 -35 68 0
1 35 -16 0
1 35 -8 0
1 35 37 0
1 35 -54 0
1 35 59 0
1 62 -35 0
1 -62 22 0
1 62 70 0
1 62 -36 0
1 62 -20 0
1 -62 60 0
1 62 71 0
1 -62 -34 0
1 -60 -35 0
1 60 23 0
1 60 62 0
1 60 72 0
1 60 -43 0
1 60 37 0
1 60 20 0
1 60 -25 0
1 -61 -23 0
1 61 73 0
1 -61 -37 0
1 61 -20 0
1 -61 -59 0
1 -61 71 0
1 59 22 0
1 59 72 0
1 -59 74 0
1 59 -65 0
1 -59 25 0
1 -59 -71 0
1 36 19 0
1 36 6 0
1 36 62 0
1 36 -68 0
1 -36 -8 0
1 36 -29 0
1 36 -69 0
1 36 -34 0
1 -34 -5 0
1 -34 -6 0
1 34 62 0
1 34 68 0
1 34 -36 0
1 34 -16 0
1 -34 -8 0
1 -34 -9 0
1 -34 69 0
1 -43 38 0
1 -43 62 0
1 43 68 0
1 43 75 0
1 -43 -44 0
1 43 69 0
1 44 19 0
1 -44 38 0
1 44 27 0
1 44 -62 0
1 44 43 0
1 -44 -16 0
1 44 -75 0
1 -44 -76 0
1 -44 -60 0
1 16 -77 0
1 -16 -78 0
1 -16 -43 0
1 -16 -36 0
1 -16 -7 0
1 -16 -37 0
1 16 79 0
1 16 42 0
1 19 35 0
1 -19 -77 0
1 -19 78 0
1 -19 -40 0
1 -19 -36 0
1 -19 -16 0
1 19 -80 0
1 19 -42 0
1 19 -34 0
1 68 35 0
1 -68 81 0
1 68 -72 0
1 68 43 0
1 68 -21 0
1 68 80 0
1 -68 -44 0
1 69 -35 0
1 69 -43 0
1 69 36 0
1 69 37 0
1 69 80 0
1 69 82 0
1 69 71 0
1 -69 -34 0
1 -40 -38 0
1 40 83 0
1 -40 28 0
1 -40 -75 0
1 40 -76 0
1 40 29 0
1 -40 42 0
1 -42 83 0
1 -42 -40 0
1 42 16 0
1 42 75 0
1 42 29 0
1 -42 30 0
1 42 71 0
1 78 -83 0
1 -78 -84 0
1 78 16 0
1 -78 -75 0
1 78 76 0
1 78 41 0
1 79 -83 0
1 79 85 0
1 -79 -78 0
1 -79 -75 0
1 79 -76 0
1 79 -86 0
1 76 -83 0
1 -76 87 0
1 76 88 0
1 76 78 0
1 -76 43 0
1 76 -89 0
1 76 -90 0
1 -76 -79 0
1 -83 -6 0
1 -83 78 0
1 83 43 0
1 83 89 0
1 -83 42 0
1 75 -91 0
1 75 -78 0
1 75 40 0
1 -75 43 0
1 -75 80 0
1 -75 -79 0
1 -75 -44 0
1 38 -5 0
1 38 -40 0
1 38 -80 0
1 -38 79 0
1 38 42 0
1 -38 -44 0
1 -88 -84 0
1 -88 -85 0
1 -88 -77 0
1 -88 86 0
1 88 -76 0
1 90 -84 0
1 -90 -88 0
1 90 85 0
1 90 -76 0
1 -90 -86 0
1 90 41 0
1 -87 83 0
1 -87 -84 0
1 87 89 0
1 -87 -86 0
1 87 -41 0
1 89 -83 0
1 89 -87 0
1 89 -84 0
1 -89 -85 0
1 -89 76 0
1 89 -92 0
1 -89 -86 0
1 -41 87 0
1 -41 88 0
1 -41 -85 0
1 -41 -78 0
1 41 -89 0
1 41 -79 0
1 85 -88 0
1 85 -89 0
1 -85 90 0
1 -85 79 0
1 -86 84 0
1 -86 -88 0
1 86 89 0
1 86 29 0
1 84 -27 0
1 -84 78 0
1 -84 -86 0
1 -84 89 0
1 84 90 0
1 84 79 0
1 65 -63 0
1 -65 -57 0
1 65 -55 0
1 -65 53 0
1 65 -61 0
1 -65 56 0
1 -65 -52 0
1 65 59 0
1 63 61 0
1 -63 -65 0
1 -63 56 0
1 -63 -54 0
1 63 34 0
1 -74 -55 0
1 -74 64 0
1 74 43 0
1 74 67 0
1 74 -59 0
1 -93 -55 0
1 -93 -66 0
1 -93 -64 0
1 93 61 0
1 -93 -74 0
1 -93 -56 0
1 93 -67 0
1 93 -94 0
1 -93 -59 0
1 93 -44 0
1 55 63 0
1 -55 49 0
1 55 81 0
1 55 -72 0
1 -55 -74 0
1 -55 65 0
1 55 56 0
1 55 -71 0
1 55 -93 0
1 -56 55 0
1 56 -74 0
1 56 -82 0
1 56 71 0
1 -57 63 0
1 57 46 0
1 -57 -65 0
1 -57 -58 0
1 57 -93 0
1 -58 63 0
1 -58 93 0
1 -72 -55 0
1 72 61 0
1 72 -40 0
1 -72 67 0
1 -72 59 0
1 72 60 0
1 72 -71 0
1 72 69 0
1 -71 -66 0
1 71 -64 0
1 -71 -61 0
1 71 -62 0
1 -71 -72 0
1 -71 68 0
1 -71 94 0
1 71 -59 0
1 -81 -95 0
1 81 -64 0
1 -81 78 0
1 -81 73 0
1 81 70 0
1 -81 68 0
1 81 -67 0
1 -81 94 0
1 -81 82 0
1 -81 96 0
1 -81 -69 0
1 -82 55 0
1 82 66 0
1 -82 64 0
1 82 81 0
1 82 73 0
1 82 70 0
1 82 68 0
1 82 79 0
1 -82 95 0
1 -82 69 0
1 -64 -91 0
1 -64 50 0
1 -64 -77 0
1 64 81 0
1 -64 -74 0
1 -64 -80 0
1 -64 82 0
1 -64 71 0
1 -64 93 0
1 94 -91 0
1 94 -77 0
1 94 72 0
1 94 -74 0
1 94 -92 0
1 -94 54 0
1 94 -80 0
1 94 82 0
1 94 -71 0
1 -66 53 0
1 66 72 0
1 -66 -74 0
1 66 -67 0
1 66 71 0
1 -67 -81 0
1 67 -72 0
1 67 74 0
1 -67 -52 0
1 67 82 0
1 -67 93 0
1 77 -19 0
1 -77 -94 0
1 77 -88 0
1 77 -64 0
1 77 -73 0
1 77 16 0
1 77 -75 0
1 77 -80 0
1 77 96 0
1 80 -77 0
1 -80 -73 0
1 80 -70 0
1 80 16 0
1 80 -90 0
1 80 -94 0
1 80 -96 0
1 80 69 0
1 -91 -38 0
1 91 87 0
1 91 64 0
1 -91 73 0
1 91 -70 0
1 91 -96 0
1 92 38 0
1 -92 64 0
1 92 73 0
1 -92 89 0
1 92 94 0
1 92 95 0
1 92 -96 0
1 -70 -81 0
1 70 80 0
1 70 -96 0
1 96 77 0
1 96 81 0
1 -96 -70 0
1 -96 -92 0
1 96 80 0
1 96 82 0
1 73 -91 0
1 -73 -61 0
1 -73 -81 0
1 73 92 0
1 73 80 0
1 73 82 0
1 -95 77 0
1 95 73 0
1 95 80 0
1 -95 -59 0
